
Route #1: 14 47 16 33 21 30 29 28 
Route #2: 23 31 43 5 44 40 36 22 32 7 
Route #3: 3 45 34 15 39 26 24 42 11 
Route #4: 18 35 37 19 38 25 
Route #5: 17 41 10 46 13 4 
Route #6: 2 9 20 8 27 1 
Route #7: 12 6 
cost 1521.23
total time is 4.6